
Gurobi 6.5.2 (linux64) logging started Sun Sep 18 18:46:30 2016


Gurobi 6.5.2 (linux64) logging started Sun Sep 18 18:46:30 2016

Optimize a model with 201 rows, 2575 columns and 5439 nonzeros
Coefficient statistics:
  Matrix range    [1e+00, 2e+00]
  Objective range [1e+00, 1e+02]
  Bounds range    [1e+00, 1e+00]
  RHS range       [1e+00, 1e+00]
Presolve removed 53 rows and 6 columns
Presolve time: 0.01s
Presolved: 148 rows, 2569 columns, 5220 nonzeros
Variable types: 0 continuous, 2569 integer (2569 binary)

Root relaxation: objective 6.012500e+02, 119 iterations, 0.00 seconds

    Nodes    |    Current Node    |     Objective Bounds      |     Work
 Expl Unexpl |  Obj  Depth IntInf | Incumbent    BestBd   Gap | It/Node Time

     0     0  601.25000    0   47          -  601.25000      -     -    0s
     0     0  666.42500    0   78          -  666.42500      -     -    0s
     0     0  668.06716    0   76          -  668.06716      -     -    0s
     0     0  682.36365    0  102          -  682.36365      -     -    0s
     0     0  682.77442    0  109          -  682.77442      -     -    0s
     0     0  690.98987    0  128          -  690.98987      -     -    0s
     0     0  691.10714    0  120          -  691.10714      -     -    0s
     0     0  692.49815    0  133          -  692.49815      -     -    0s
     0     0  692.49815    0  129          -  692.49815      -     -    0s
     0     2  692.49815    0  129          -  692.49815      -     -    0s
  1472  1398  731.31592   20   56          -  731.31592      -   5.0    7s
  2484  2059  781.33333  105    6          -  731.50000      -   6.8   10s

Cutting planes:
  Gomory: 44
  Cover: 89
  MIR: 3
  Flow cover: 17
  Zero half: 5
  Lazy constraints: 48

Explored 2675 nodes (18567 simplex iterations) in 10.00 seconds
Thread count was 8 (of 8 available processors)

Time limit reached
Best objective -, best bound 7.320000000000e+02, gap -
